# Solution for model JobShopModel
# Objective value = 4367
y[0,0,3] 0
y[0,0,4] 0
y[0,0,6] 1
y[0,1,0] 0
y[0,1,1] 1
y[0,1,3] 0
y[0,2,0] 0
y[0,2,1] 0
y[0,2,2] 1
y[1,0,4] 0
y[1,0,5] 1
y[1,0,6] 0
y[1,1,1] 0
y[1,1,2] 1
y[1,1,3] 0
y[1,2,0] 1
y[1,2,2] 0
y[2,0,3] 0
y[2,0,4] 1
y[2,0,5] 0
y[2,1,2] 0
y[2,1,3] 0
y[2,1,6] 1
y[2,2,0] 0
y[2,2,1] 1
y[3,0,3] 1
y[3,0,5] 0
y[3,1,2] 0
y[3,1,4] 1
y[3,2,0] 0
y[3,2,1] 1
y[4,0,4] 1
y[4,0,5] 0
y[4,1,2] 0
y[4,1,3] 1
y[4,1,4] 0
y[4,2,0] 1
y[4,2,1] 0
y[4,2,2] 0
y[5,0,4] 0
y[5,0,5] 1
y[5,0,6] 0
y[5,1,2] 1
y[5,1,3] 0
y[5,1,4] 0
y[5,2,1] 0
y[5,2,2] 0
y[5,2,3] 1
x[0,0,0,0] 0
x[0,0,0,1] 0
x[0,0,0,2] 0
x[0,0,1,0] 1
x[0,0,1,1] 1
x[0,0,1,2] 0
x[0,0,2,0] 0
x[0,0,2,1] 1
x[0,0,2,2] 0
x[0,0,3,0] 1
x[0,0,3,1] 0
x[0,0,3,2] 0
x[0,0,4,0] 1
x[0,0,4,1] 1
x[0,0,4,2] 0
x[0,0,5,0] 0
x[0,0,5,1] 1
x[0,0,5,2] 1
x[0,1,0,0] 1
x[0,1,0,1] 0
x[0,1,0,2] 0
x[0,1,1,0] 0
x[0,1,1,1] 1
x[0,1,1,2] 0
x[0,1,2,0] 0
x[0,1,2,1] 0
x[0,1,2,2] 1
x[0,1,3,0] 1
x[0,1,3,1] 0
x[0,1,3,2] 0
x[0,1,4,0] 0
x[0,1,4,1] 1
x[0,1,4,2] 0
x[0,1,5,0] 0
x[0,1,5,1] 0
x[0,1,5,2] 1
x[0,2,0,0] 0
x[0,2,0,1] 1
x[0,2,0,2] 0
x[0,2,1,0] 0
x[0,2,1,1] 0
x[0,2,1,2] 0
x[0,2,2,0] 0
x[0,2,2,1] 1
x[0,2,2,2] 0
x[0,2,3,0] 0
x[0,2,3,1] 1
x[0,2,3,2] 1
x[0,2,4,0] 0
x[0,2,4,1] 1
x[0,2,4,2] 1
x[0,2,5,0] 0
x[0,2,5,1] 0
x[0,2,5,2] 1
x[1,0,0,0] 0
x[1,0,0,1] 0
x[1,0,0,2] 0
x[1,0,1,0] 0
x[1,0,1,1] 0
x[1,0,1,2] 0
x[1,0,2,0] 0
x[1,0,2,1] 1
x[1,0,2,2] 0
x[1,0,3,0] 0
x[1,0,3,1] 0
x[1,0,3,2] 0
x[1,0,4,0] 0
x[1,0,4,1] 1
x[1,0,4,2] 0
x[1,0,5,0] 0
x[1,0,5,1] 1
x[1,0,5,2] 0
x[1,1,0,0] 0
x[1,1,0,1] 0
x[1,1,0,2] 0
x[1,1,1,0] 0
x[1,1,1,1] 0
x[1,1,1,2] 0
x[1,1,2,0] 0
x[1,1,2,1] 0
x[1,1,2,2] 1
x[1,1,3,0] 1
x[1,1,3,1] 0
x[1,1,3,2] 0
x[1,1,4,0] 0
x[1,1,4,1] 1
x[1,1,4,2] 1
x[1,1,5,0] 0
x[1,1,5,1] 0
x[1,1,5,2] 1
x[1,2,0,0] 0
x[1,2,0,1] 0
x[1,2,0,2] 0
x[1,2,1,0] 0
x[1,2,1,1] 1
x[1,2,1,2] 0
x[1,2,2,0] 0
x[1,2,2,1] 0
x[1,2,2,2] 1
x[1,2,3,0] 0
x[1,2,3,1] 0
x[1,2,3,2] 0
x[1,2,4,0] 0
x[1,2,4,1] 0
x[1,2,4,2] 0
x[1,2,5,0] 0
x[1,2,5,1] 1
x[1,2,5,2] 0
x[2,0,0,0] 0
x[2,0,0,1] 0
x[2,0,0,2] 0
x[2,0,1,0] 0
x[2,0,1,1] 0
x[2,0,1,2] 0
x[2,0,2,0] 0
x[2,0,2,1] 0
x[2,0,2,2] 0
x[2,0,3,0] 1
x[2,0,3,1] 0
x[2,0,3,2] 0
x[2,0,4,0] 0
x[2,0,4,1] 0
x[2,0,4,2] 0
x[2,0,5,0] 0
x[2,0,5,1] 1
x[2,0,5,2] 1
x[2,1,0,0] 0
x[2,1,0,1] 0
x[2,1,0,2] 0
x[2,1,1,0] 0
x[2,1,1,1] 0
x[2,1,1,2] 0
x[2,1,2,0] 1
x[2,1,2,1] 0
x[2,1,2,2] 0
x[2,1,3,0] 1
x[2,1,3,1] 1
x[2,1,3,2] 0
x[2,1,4,0] 0
x[2,1,4,1] 0
x[2,1,4,2] 1
x[2,1,5,0] 0
x[2,1,5,1] 1
x[2,1,5,2] 1
x[2,2,0,0] 0
x[2,2,0,1] 0
x[2,2,0,2] 0
x[2,2,1,0] 0
x[2,2,1,1] 0
x[2,2,1,2] 0
x[2,2,2,0] 0
x[2,2,2,1] 0
x[2,2,2,2] 0
x[2,2,3,0] 0
x[2,2,3,1] 0
x[2,2,3,2] 0
x[2,2,4,0] 0
x[2,2,4,1] 0
x[2,2,4,2] 1
x[2,2,5,0] 0
x[2,2,5,1] 0
x[2,2,5,2] 0
x[3,0,0,0] 0
x[3,0,0,1] 0
x[3,0,0,2] 0
x[3,0,1,0] 0
x[3,0,1,1] 0
x[3,0,1,2] 0
x[3,0,2,0] 0
x[3,0,2,1] 0
x[3,0,2,2] 0
x[3,0,3,0] 0
x[3,0,3,1] 0
x[3,0,3,2] 0
x[3,0,4,0] 0
x[3,0,4,1] 1
x[3,0,4,2] 0
x[3,0,5,0] 0
x[3,0,5,1] 0
x[3,0,5,2] 1
x[3,1,0,0] 0
x[3,1,0,1] 0
x[3,1,0,2] 0
x[3,1,1,0] 0
x[3,1,1,1] 0
x[3,1,1,2] 0
x[3,1,2,0] 0
x[3,1,2,1] 0
x[3,1,2,2] 0
x[3,1,3,0] 0
x[3,1,3,1] 0
x[3,1,3,2] 0
x[3,1,4,0] 1
x[3,1,4,1] 1
x[3,1,4,2] 1
x[3,1,5,0] 0
x[3,1,5,1] 1
x[3,1,5,2] 1
x[3,2,0,0] 0
x[3,2,0,1] 0
x[3,2,0,2] 0
x[3,2,1,0] 0
x[3,2,1,1] 0
x[3,2,1,2] 0
x[3,2,2,0] 0
x[3,2,2,1] 0
x[3,2,2,2] 0
x[3,2,3,0] 0
x[3,2,3,1] 0
x[3,2,3,2] 0
x[3,2,4,0] 0
x[3,2,4,1] 0
x[3,2,4,2] 0
x[3,2,5,0] 0
x[3,2,5,1] 0
x[3,2,5,2] 1
x[4,0,0,0] 0
x[4,0,0,1] 0
x[4,0,0,2] 0
x[4,0,1,0] 0
x[4,0,1,1] 0
x[4,0,1,2] 0
x[4,0,2,0] 0
x[4,0,2,1] 0
x[4,0,2,2] 0
x[4,0,3,0] 0
x[4,0,3,1] 0
x[4,0,3,2] 0
x[4,0,4,0] 0
x[4,0,4,1] 1
x[4,0,4,2] 0
x[4,0,5,0] 1
x[4,0,5,1] 1
x[4,0,5,2] 0
x[4,1,0,0] 0
x[4,1,0,1] 0
x[4,1,0,2] 0
x[4,1,1,0] 0
x[4,1,1,1] 0
x[4,1,1,2] 0
x[4,1,2,0] 0
x[4,1,2,1] 0
x[4,1,2,2] 0
x[4,1,3,0] 0
x[4,1,3,1] 0
x[4,1,3,2] 0
x[4,1,4,0] 0
x[4,1,4,1] 0
x[4,1,4,2] 1
x[4,1,5,0] 1
x[4,1,5,1] 0
x[4,1,5,2] 1
x[4,2,0,0] 0
x[4,2,0,1] 0
x[4,2,0,2] 0
x[4,2,1,0] 0
x[4,2,1,1] 0
x[4,2,1,2] 0
x[4,2,2,0] 0
x[4,2,2,1] 0
x[4,2,2,2] 0
x[4,2,3,0] 0
x[4,2,3,1] 0
x[4,2,3,2] 0
x[4,2,4,0] 0
x[4,2,4,1] 0
x[4,2,4,2] 0
x[4,2,5,0] 0
x[4,2,5,1] 1
x[4,2,5,2] 0
x[5,0,0,0] 0
x[5,0,0,1] 0
x[5,0,0,2] 0
x[5,0,1,0] 0
x[5,0,1,1] 0
x[5,0,1,2] 0
x[5,0,2,0] 0
x[5,0,2,1] 0
x[5,0,2,2] 0
x[5,0,3,0] 0
x[5,0,3,1] 0
x[5,0,3,2] 0
x[5,0,4,0] 0
x[5,0,4,1] 0
x[5,0,4,2] 0
x[5,0,5,0] 0
x[5,0,5,1] 1
x[5,0,5,2] 0
x[5,1,0,0] 0
x[5,1,0,1] 0
x[5,1,0,2] 0
x[5,1,1,0] 0
x[5,1,1,1] 0
x[5,1,1,2] 0
x[5,1,2,0] 0
x[5,1,2,1] 0
x[5,1,2,2] 0
x[5,1,3,0] 0
x[5,1,3,1] 0
x[5,1,3,2] 0
x[5,1,4,0] 0
x[5,1,4,1] 0
x[5,1,4,2] 0
x[5,1,5,0] 0
x[5,1,5,1] 0
x[5,1,5,2] 1
x[5,2,0,0] 0
x[5,2,0,1] 0
x[5,2,0,2] 0
x[5,2,1,0] 0
x[5,2,1,1] 0
x[5,2,1,2] 0
x[5,2,2,0] 0
x[5,2,2,1] 0
x[5,2,2,2] 0
x[5,2,3,0] 0
x[5,2,3,1] 0
x[5,2,3,2] 0
x[5,2,4,0] 0
x[5,2,4,1] 0
x[5,2,4,2] 0
x[5,2,5,0] 0
x[5,2,5,1] 0
x[5,2,5,2] 0
s[0,0,3] 0
s[0,0,4] 0
s[0,0,6] 1.1340000000000223e+03
s[0,1,0] 0
s[0,1,1] 812
s[0,1,3] 0
s[0,2,0] 0
s[0,2,1] 0
s[0,2,2] 480
s[1,0,4] 0
s[1,0,5] 8.0800000000000250e+02
s[1,0,6] 0
s[1,1,1] 0
s[1,1,2] 721
s[1,1,3] 0
s[1,2,0] 480
s[1,2,2] 0
s[2,0,3] 0
s[2,0,4] 6.8700000000002228e+02
s[2,0,5] 0
s[2,1,2] 0
s[2,1,3] 0
s[2,1,6] 5.4200000000001216e+02
s[2,2,0] 0
s[2,2,1] 480
s[3,0,3] 1.5720000000000227e+03
s[3,0,5] 0
s[3,1,2] 0
s[3,1,4] 1.3990000000000227e+03
s[3,2,0] 0
s[3,2,1] 1262
s[4,0,4] 1.0090000000000123e+03
s[4,0,5] 0
s[4,1,2] 0
s[4,1,3] 944
s[4,1,4] 0
s[4,2,0] 816
s[4,2,1] 0
s[4,2,2] 0
s[5,0,4] 0
s[5,0,5] 1.1470000000000025e+03
s[5,0,6] 0
s[5,1,2] 1025
s[5,1,3] 0
s[5,1,4] 0
s[5,2,1] 0
s[5,2,2] 0
s[5,2,3] 480
Z_FO 4367
C421 0
C422 0
C423 1
C424 0
C425 1
C426 0
C427 0
C428 1
C429 0
C430 1
C431 0
C432 1
C433 0
C434 0
C435 1
C436 0
